c DIMACS file CNF 3-SAT 
p cnf 7 54
-7 -2 -2 0 
3 -7 1 0 
-2 4 5 0 
6 -6 4 0 
4 5 -1 0 
-1 -6 6 0 
-2 4 1 0 
3 -7 7 0 
-4 -4 -3 0 
-3 -3 -4 0 
4 5 -1 0 
-5 3 6 0 
3 -2 -7 0 
4 -4 -7 0 
-2 -7 6 0 
5 -5 -7 0 
-7 -4 -4 0 
1 2 -2 0 
-2 -3 -3 0 
-2 -4 -7 0 
-4 4 6 0 
-1 4 -4 0 
1 -7 3 0 
-6 -2 4 0 
6 -4 5 0 
7 -7 1 0 
5 3 1 0 
2 -7 -7 0 
3 -6 6 0 
4 -1 5 0 
-6 -4 4 0 
3 -6 7 0 
7 7 3 0 
-2 -6 4 0 
-4 3 -1 0 
-1 -2 -2 0 
-4 -2 7 0 
3 -6 6 0 
7 6 -3 0 
1 -7 6 0 
6 -6 -5 0 
2 -4 -2 0 
1 -4 -6 0 
-2 -3 4 0 
-3 -4 6 0 
-7 -5 -4 0 
1 2 1 0 
7 7 -2 0 
-6 1 -3 0 
-7 6 -1 0 
7 -4 6 0 
3 -2 -5 0 
-2 2 7 0 
-4 -6 4 0